NAME: cum220.tsp
TYPE: TSP
COMMENT: User-generated TSP file
DIMENSION: 220
EDGE_WEIGHT_TYPE: EUC_2D
NODE_COORD_SECTION
1 16.0 75.0
2 93.0 67.0
3 174.0 152.0
4 141.0 50.0
5 13.0 113.0
6 51.0 97.0
7 31.0 142.0
8 70.0 20.0
9 136.0 186.0
10 149.0 129.0
11 23.0 74.0
12 89.0 142.0
13 204.0 194.0
14 171.0 189.0
15 79.0 16.0
16 102.0 49.0
17 57.0 136.0
18 11.0 216.0
19 172.0 214.0
20 187.0 1.0
21 5.0 103.0
22 3.0 110.0
23 210.0 108.0
24 13.0 146.0
25 165.0 13.0
26 98.0 190.0
27 204.0 194.0
28 210.0 18.0
29 97.0 113.0
30 144.0 135.0
31 201.0 172.0
32 124.0 200.0
33 30.0 84.0
34 152.0 11.0
35 92.0 154.0
36 167.0 211.0
37 144.0 20.0
38 34.0 65.0
39 168.0 53.0
40 35.0 128.0
41 123.0 19.0
42 198.0 39.0
43 64.0 49.0
44 160.0 84.0
45 58.0 210.0
46 211.0 144.0
47 80.0 197.0
48 17.0 180.0
49 68.0 137.0
50 215.0 201.0
51 203.0 125.0
52 125.0 195.0
53 124.0 44.0
54 32.0 215.0
55 145.0 35.0
56 55.0 160.0
57 76.0 42.0
58 119.0 41.0
59 86.0 185.0
60 66.0 3.0
61 91.0 207.0
62 47.0 48.0
63 171.0 132.0
64 176.0 168.0
65 66.0 162.0
66 220.0 35.0
67 16.0 27.0
68 41.0 77.0
69 95.0 136.0
70 49.0 4.0
71 41.0 171.0
72 127.0 171.0
73 187.0 2.0
74 67.0 28.0
75 185.0 207.0
76 184.0 34.0
77 103.0 92.0
78 107.0 217.0
79 40.0 138.0
80 147.0 41.0
81 88.0 142.0
82 203.0 202.0
83 187.0 142.0
84 35.0 50.0
85 208.0 183.0
86 142.0 176.0
87 138.0 214.0
88 173.0 139.0
89 21.0 129.0
90 181.0 171.0
91 110.0 52.0
92 55.0 74.0
93 69.0 205.0
94 29.0 55.0
95 36.0 117.0
96 58.0 104.0
97 130.0 138.0
98 195.0 71.0
99 20.0 138.0
100 113.0 188.0
101 213.0 167.0
102 145.0 114.0
103 194.0 137.0
104 71.0 6.0
105 134.0 14.0
106 23.0 20.0
107 63.0 122.0
108 139.0 121.0
109 171.0 48.0
110 107.0 199.0
111 63.0 155.0
112 203.0 124.0
113 166.0 131.0
114 152.0 209.0
115 154.0 147.0
116 71.0 206.0
117 191.0 203.0
118 65.0 106.0
119 161.0 24.0
120 212.0 215.0
121 62.0 58.0
122 51.0 90.0
123 186.0 201.0
124 101.0 68.0
125 178.0 67.0
126 59.0 73.0
127 44.0 215.0
128 202.0 220.0
129 35.0 183.0
130 85.0 76.0
131 88.0 116.0
132 187.0 5.0
133 121.0 162.0
134 140.0 17.0
135 122.0 118.0
136 19.0 195.0
137 35.0 200.0
138 134.0 14.0
139 124.0 144.0
140 138.0 209.0
141 134.0 10.0
142 181.0 6.0
143 155.0 207.0
144 78.0 5.0
145 167.0 14.0
146 101.0 172.0
147 26.0 196.0
148 197.0 75.0
149 42.0 204.0
150 8.0 12.0
151 173.0 155.0
152 121.0 117.0
153 90.0 62.0
154 37.0 45.0
155 32.0 7.0
156 177.0 7.0
157 161.0 142.0
158 137.0 73.0
159 78.0 97.0
160 115.0 178.0
161 134.0 139.0
162 59.0 84.0
163 81.0 58.0
164 79.0 214.0
165 148.0 99.0
166 65.0 134.0
167 98.0 17.0
168 99.0 143.0
169 83.0 24.0
170 168.0 31.0
171 19.0 215.0
172 13.0 183.0
173 206.0 183.0
174 108.0 208.0
175 30.0 27.0
176 65.0 103.0
177 114.0 206.0
178 216.0 116.0
179 79.0 122.0
180 78.0 20.0
181 128.0 75.0
182 70.0 28.0
183 128.0 145.0
184 47.0 215.0
185 152.0 156.0
186 132.0 180.0
187 94.0 207.0
188 47.0 151.0
189 179.0 20.0
190 210.0 212.0
191 140.0 150.0
192 9.0 34.0
193 33.0 29.0
194 33.0 74.0
195 60.0 175.0
196 150.0 219.0
197 1.0 8.0
198 156.0 2.0
199 100.0 90.0
200 145.0 162.0
201 25.0 111.0
202 32.0 153.0
203 124.0 176.0
204 193.0 164.0
205 92.0 176.0
206 27.0 137.0
207 148.0 39.0
208 60.0 218.0
209 191.0 44.0
210 135.0 64.0
211 131.0 184.0
212 15.0 214.0
213 189.0 72.0
214 20.0 209.0
215 128.0 95.0
216 194.0 8.0
217 77.0 37.0
218 97.0 213.0
219 87.0 34.0
220 132.0 157.0
EOF





